decision_x1=[0,7];
decision_x2=[0,7];
decision_x3=[0,7];
decision_x4=[0,7];
decision_x5=[0,7];
decision_x6=[0,7];
decision_x7=[0,7];
decision_x8=[0,7];
decision_x9=[0,7];
decision_x10=[0,7];
decision_x11=[0,7];
decision_x12=[0,7];
decision_x13=[0,7];
decision_x14=[0,7];
decision_x15=[0,7];
decision_x16=[0,7];
decision_x17=[0,7];
decision_x18=[0,7];
random_y1=[0,7];
random_y2=[0,7];
random_y3=[0,7];
random_y4=[0,7];
random_y5=[0,7];
random_y6=[0,7];
random_y7=[0,7];
random_y8=[0,7];
constraint_x2_x1=[
0,0,8.7|
0,1,3.5|
0,2,1.6|
0,3,3.5|
0,4,10|
0,5,0.25|
0,6,4.4|
0,7,7|
1,0,6.1|
1,1,5|
1,2,7.9|
1,3,6|
1,4,5.6|
1,5,7.6|
1,6,2.7|
1,7,7.3|
2,0,3.1|
2,1,3.8|
2,2,1.4|
2,3,9|
2,4,5.1|
2,5,3.6|
2,6,4.6|
2,7,1.7|
3,0,8.6|
3,1,6.1|
3,2,6.3|
3,3,8.9|
3,4,7.4|
3,5,3.5|
3,6,6.9|
3,7,5.1|
4,0,7.1|
4,1,4.7|
4,2,4.5|
4,3,4.5|
4,4,5|
4,5,9.1|
4,6,7.2|
4,7,1.4|
5,0,5.8|
5,1,9.7|
5,2,5.2|
5,3,9.8|
5,4,9.2|
5,5,2.9|
5,6,2|
5,7,1.7|
6,0,5.4|
6,1,9.4|
6,2,4.1|
6,3,9.7|
6,4,5.3|
6,5,0.43|
6,6,3.1|
6,7,6.3|
7,0,2.1|
7,1,1.1|
7,2,5|
7,3,3.1|
7,4,5.5|
7,5,0.43|
7,6,2.6|
7,7,5.4|
];
constraint_x3_x2=[
0,0,6.4|
0,1,8.6|
0,2,6.2|
0,3,7.8|
0,4,3.5|
0,5,3.1|
0,6,2.6|
0,7,6.9|
1,0,0.56|
1,1,1.4|
1,2,3.1|
1,3,0.69|
1,4,4.6|
1,5,5.3|
1,6,9.2|
1,7,4.5|
2,0,5|
2,1,3.5|
2,2,2.4|
2,3,5.1|
2,4,5.3|
2,5,3.2|
2,6,0.73|
2,7,4|
3,0,5.9|
3,1,6|
3,2,9.9|
3,3,2.9|
3,4,6.8|
3,5,9.6|
3,6,9.8|
3,7,6.1|
4,0,1.9|
4,1,4.4|
4,2,3.7|
4,3,9.7|
4,4,0.31|
4,5,9.5|
4,6,7.8|
4,7,5.9|
5,0,1.6|
5,1,4.9|
5,2,2.1|
5,3,1.1|
5,4,2.2|
5,5,6.2|
5,6,7|
5,7,5.2|
6,0,9.8|
6,1,2.8|
6,2,4.3|
6,3,5.2|
6,4,7|
6,5,9.8|
6,6,9.6|
6,7,1.8|
7,0,2.2|
7,1,6.3|
7,2,2.9|
7,3,7.4|
7,4,3.3|
7,5,4.9|
7,6,4.2|
7,7,1.8|
];
constraint_x4_x3=[
0,0,3|
0,1,5.4|
0,2,6.3|
0,3,1.7|
0,4,7.8|
0,5,8.3|
0,6,2.2|
0,7,0.48|
1,0,3.1|
1,1,8.6|
1,2,9.7|
1,3,3.1|
1,4,7.5|
1,5,5.2|
1,6,9.3|
1,7,2.5|
2,0,5.3|
2,1,2.1|
2,2,4.5|
2,3,8|
2,4,8.5|
2,5,1.3|
2,6,8.6|
2,7,7.6|
3,0,1.3|
3,1,9.3|
3,2,4.2|
3,3,3.2|
3,4,5.4|
3,5,3.4|
3,6,4.9|
3,7,3.7|
4,0,7.9|
4,1,6.4|
4,2,3.7|
4,3,2.9|
4,4,4.2|
4,5,2.3|
4,6,6.2|
4,7,4|
5,0,6.6|
5,1,8.1|
5,2,1.8|
5,3,1.7|
5,4,7.6|
5,5,9.8|
5,6,1.3|
5,7,7.1|
6,0,6.2|
6,1,4.6|
6,2,4.6|
6,3,0.51|
6,4,0.32|
6,5,8.9|
6,6,7.6|
6,7,5.4|
7,0,0.019|
7,1,0.75|
7,2,5.2|
7,3,6.1|
7,4,1.3|
7,5,5.4|
7,6,2.4|
7,7,7.3|
];
constraint_x5_x1=[
0,0,0.016|
0,1,4.5|
0,2,0.15|
0,3,8|
0,4,3|
0,5,3.7|
0,6,9.6|
0,7,5.2|
1,0,9.6|
1,1,4.9|
1,2,8.6|
1,3,9.9|
1,4,4.9|
1,5,9.5|
1,6,4.5|
1,7,0.34|
2,0,2|
2,1,8|
2,2,5|
2,3,7.3|
2,4,7.7|
2,5,1.4|
2,6,0.73|
2,7,3.5|
3,0,2.3|
3,1,3.9|
3,2,7.6|
3,3,1.7|
3,4,3|
3,5,2.4|
3,6,8.6|
3,7,5.2|
4,0,9.3|
4,1,5.6|
4,2,2.1|
4,3,2|
4,4,8.8|
4,5,2.3|
4,6,8.4|
4,7,3.5|
5,0,8.4|
5,1,2|
5,2,0.37|
5,3,9.7|
5,4,1.2|
5,5,1.7|
5,6,3.1|
5,7,1.4|
6,0,3.6|
6,1,6|
6,2,9.6|
6,3,0.61|
6,4,8.3|
6,5,3.1|
6,6,2.2|
6,7,7.4|
7,0,4|
7,1,0.12|
7,2,1.3|
7,3,9.7|
7,4,7.4|
7,5,9|
7,6,2|
7,7,8.1|
];
constraint_x6_x2=[
0,0,8.1|
0,1,7.4|
0,2,9.5|
0,3,4.4|
0,4,3.1|
0,5,3.3|
0,6,1.9|
0,7,7|
1,0,8.2|
1,1,9.7|
1,2,7.7|
1,3,7.4|
1,4,0.82|
1,5,2|
1,6,1.8|
1,7,7.2|
2,0,5.4|
2,1,0.46|
2,2,4.5|
2,3,7.1|
2,4,1.5|
2,5,6.9|
2,6,5.1|
2,7,4.6|
3,0,7.7|
3,1,7.1|
3,2,8.4|
3,3,1.7|
3,4,0.74|
3,5,2.9|
3,6,2.9|
3,7,9.4|
4,0,8.1|
4,1,5.9|
4,2,2.6|
4,3,8.1|
4,4,7.2|
4,5,1.8|
4,6,9.2|
4,7,2.1|
5,0,0.47|
5,1,7.2|
5,2,1.2|
5,3,0.76|
5,4,2.8|
5,5,8.7|
5,6,4.5|
5,7,5.1|
6,0,9|
6,1,1.8|
6,2,8.8|
6,3,9.1|
6,4,7|
6,5,3.8|
6,6,6.1|
6,7,5.9|
7,0,7.1|
7,1,0.32|
7,2,5.2|
7,3,0.55|
7,4,7.2|
7,5,7.2|
7,6,6.5|
7,7,4.3|
];
constraint_x6_x5=[
0,0,0.87|
0,1,7.5|
0,2,5.4|
0,3,0.14|
0,4,2.4|
0,5,4.3|
0,6,6.2|
0,7,2.6|
1,0,1.1|
1,1,0.55|
1,2,8.5|
1,3,3.3|
1,4,9.9|
1,5,1.3|
1,6,7.9|
1,7,1.1|
2,0,3|
2,1,2.1|
2,2,7.7|
2,3,3.2|
2,4,7.1|
2,5,3.7|
2,6,1.1|
2,7,6.5|
3,0,8.3|
3,1,4.3|
3,2,8.6|
3,3,8.5|
3,4,5.1|
3,5,9.6|
3,6,0.73|
3,7,0.16|
4,0,5|
4,1,7.8|
4,2,7.9|
4,3,5.6|
4,4,3.2|
4,5,7.4|
4,6,0.74|
4,7,8.9|
5,0,1.6|
5,1,2|
5,2,6.4|
5,3,2.8|
5,4,2.2|
5,5,7.8|
5,6,4|
5,7,3.6|
6,0,8.9|
6,1,8.8|
6,2,0.64|
6,3,0.3|
6,4,8.1|
6,5,7.5|
6,6,6.4|
6,7,5.3|
7,0,2|
7,1,0.48|
7,2,3.1|
7,3,1.3|
7,4,8.6|
7,5,6.4|
7,6,2.8|
7,7,0.53|
];
constraint_x7_x3=[
0,0,0.33|
0,1,9.8|
0,2,5.4|
0,3,0.11|
0,4,9.6|
0,5,1.4|
0,6,2.8|
0,7,3.9|
1,0,0.33|
1,1,5.5|
1,2,5.5|
1,3,3.6|
1,4,6.6|
1,5,10|
1,6,0.17|
1,7,9.8|
2,0,3.2|
2,1,1.1|
2,2,3.9|
2,3,8.3|
2,4,0.89|
2,5,4|
2,6,2.9|
2,7,1.3|
3,0,8.2|
3,1,8.6|
3,2,2.1|
3,3,2|
3,4,5|
3,5,7.9|
3,6,7.7|
3,7,9.1|
4,0,6|
4,1,7.9|
4,2,7.5|
4,3,2.8|
4,4,9.7|
4,5,5.7|
4,6,8.7|
4,7,4.5|
5,0,0.94|
5,1,3.9|
5,2,1.3|
5,3,3.9|
5,4,6.6|
5,5,3.3|
5,6,7.6|
5,7,6.8|
6,0,4.5|
6,1,0.49|
6,2,7|
6,3,4.7|
6,4,8|
6,5,1.3|
6,6,5.6|
6,7,0.85|
7,0,6|
7,1,5.7|
7,2,2.8|
7,3,1.2|
7,4,0.47|
7,5,0.42|
7,6,0.28|
7,7,2|
];
constraint_x7_x6=[
0,0,1.8|
0,1,0.23|
0,2,1.9|
0,3,4.3|
0,4,7.1|
0,5,1.2|
0,6,4.5|
0,7,7.4|
1,0,0.12|
1,1,1.5|
1,2,5.4|
1,3,1.3|
1,4,1.2|
1,5,7.8|
1,6,5.8|
1,7,5.8|
2,0,4.4|
2,1,7.8|
2,2,8.3|
2,3,9.9|
2,4,7.4|
2,5,9.6|
2,6,1.4|
2,7,8.9|
3,0,5.5|
3,1,9.4|
3,2,9.3|
3,3,3|
3,4,1.2|
3,5,9.8|
3,6,2.5|
3,7,9|
4,0,2.8|
4,1,0.26|
4,2,8.4|
4,3,9|
4,4,8|
4,5,3.5|
4,6,9.1|
4,7,6.8|
5,0,7.2|
5,1,3.8|
5,2,4.1|
5,3,6.2|
5,4,6.7|
5,5,6.9|
5,6,3.5|
5,7,6.2|
6,0,6.8|
6,1,8.2|
6,2,9.6|
6,3,6.2|
6,4,8.4|
6,5,9.9|
6,6,2.6|
6,7,7.1|
7,0,6|
7,1,2.7|
7,2,5.5|
7,3,4.1|
7,4,4.9|
7,5,9.6|
7,6,7.1|
7,7,1.3|
];
constraint_x8_x4=[
0,0,4.6|
0,1,7.4|
0,2,5|
0,3,4.9|
0,4,3.2|
0,5,2.6|
0,6,2.8|
0,7,4.9|
1,0,0.9|
1,1,1|
1,2,8.6|
1,3,8.3|
1,4,4.5|
1,5,5.7|
1,6,4|
1,7,9.4|
2,0,3.7|
2,1,4.6|
2,2,6.1|
2,3,3.2|
2,4,7.5|
2,5,2.7|
2,6,5.1|
2,7,7.9|
3,0,2.5|
3,1,4.2|
3,2,1.7|
3,3,0.79|
3,4,0.44|
3,5,8.9|
3,6,5.1|
3,7,7.5|
4,0,8.5|
4,1,1.8|
4,2,9.8|
4,3,6.9|
4,4,4|
4,5,3|
4,6,8|
4,7,7.9|
5,0,0.6|
5,1,2|
5,2,4.7|
5,3,0.9|
5,4,3.9|
5,5,7.6|
5,6,8.7|
5,7,7.1|
6,0,0.37|
6,1,0.17|
6,2,2.8|
6,3,7.1|
6,4,9.3|
6,5,1.3|
6,6,0.94|
6,7,4.3|
7,0,5.1|
7,1,6.4|
7,2,1.8|
7,3,6.2|
7,4,5.4|
7,5,1.2|
7,6,9.6|
7,7,7.1|
];
constraint_x8_x7=[
0,0,1.5|
0,1,6.6|
0,2,1.4|
0,3,2.8|
0,4,1.9|
0,5,1.1|
0,6,9.7|
0,7,0.74|
1,0,4.8|
1,1,7.5|
1,2,4.1|
1,3,5.4|
1,4,1.1|
1,5,5.7|
1,6,9.4|
1,7,4.7|
2,0,1.5|
2,1,5.1|
2,2,7.4|
2,3,4|
2,4,1.5|
2,5,4.2|
2,6,4.5|
2,7,4.4|
3,0,3.1|
3,1,8.1|
3,2,7.1|
3,3,8.2|
3,4,6.4|
3,5,5.4|
3,6,2.3|
3,7,5.1|
4,0,4.8|
4,1,7.2|
4,2,3.3|
4,3,9|
4,4,6.9|
4,5,0.43|
4,6,2.1|
4,7,7.3|
5,0,0.55|
5,1,6.6|
5,2,9.1|
5,3,4.2|
5,4,1.4|
5,5,7.7|
5,6,9.2|
5,7,8.6|
6,0,8.7|
6,1,3.9|
6,2,0.32|
6,3,7|
6,4,1.9|
6,5,4.5|
6,6,4.6|
6,7,2.4|
7,0,3.4|
7,1,2.2|
7,2,7.6|
7,3,5.3|
7,4,6|
7,5,1.4|
7,6,9.3|
7,7,8|
];
constraint_x9_x5=[
0,0,7.4|
0,1,3.8|
0,2,0.7|
0,3,2.1|
0,4,8.2|
0,5,2.8|
0,6,0.043|
0,7,7.2|
1,0,3.6|
1,1,7.6|
1,2,9.6|
1,3,8.6|
1,4,2.2|
1,5,9.3|
1,6,0.55|
1,7,8.2|
2,0,7.9|
2,1,7.7|
2,2,9.9|
2,3,8.7|
2,4,7.7|
2,5,3.8|
2,6,7.9|
2,7,5.7|
3,0,0.057|
3,1,5.6|
3,2,9.1|
3,3,4.1|
3,4,5.6|
3,5,2.9|
3,6,3.4|
3,7,8.2|
4,0,0.28|
4,1,9.3|
4,2,0.9|
4,3,4.2|
4,4,0.72|
4,5,4.2|
4,6,4.3|
4,7,0.36|
5,0,6.9|
5,1,6.2|
5,2,9.2|
5,3,5.9|
5,4,2.7|
5,5,0.21|
5,6,3.5|
5,7,6.9|
6,0,4.4|
6,1,9.7|
6,2,5.4|
6,3,5.7|
6,4,5.3|
6,5,3.7|
6,6,5.5|
6,7,2.2|
7,0,0.72|
7,1,5.8|
7,2,1.2|
7,3,7.1|
7,4,2.5|
7,5,7.8|
7,6,2|
7,7,6.7|
];
constraint_x10_x6=[
0,0,4.2|
0,1,1.4|
0,2,8.9|
0,3,5.8|
0,4,1|
0,5,5.2|
0,6,7.5|
0,7,8.5|
1,0,2.1|
1,1,4.6|
1,2,7.4|
1,3,4.6|
1,4,7.4|
1,5,0.46|
1,6,0.49|
1,7,5|
2,0,4.7|
2,1,2.7|
2,2,7.6|
2,3,7.9|
2,4,2.5|
2,5,8.2|
2,6,0.29|
2,7,5.3|
3,0,6.6|
3,1,4.7|
3,2,8.4|
3,3,9.8|
3,4,1|
3,5,6.6|
3,6,1.4|
3,7,0.33|
4,0,1.9|
4,1,2.8|
4,2,6.7|
4,3,3.1|
4,4,0.78|
4,5,7.3|
4,6,1.3|
4,7,6.9|
5,0,1.2|
5,1,8.9|
5,2,0.96|
5,3,7.3|
5,4,4|
5,5,0.85|
5,6,7.6|
5,7,7.7|
6,0,6.3|
6,1,1.6|
6,2,7.2|
6,3,6.5|
6,4,3.2|
6,5,0.66|
6,6,5.1|
6,7,1.3|
7,0,6.6|
7,1,3.8|
7,2,9.8|
7,3,5|
7,4,3.3|
7,5,8.7|
7,6,9.9|
7,7,5.4|
];
constraint_x10_x9=[
0,0,1.4|
0,1,6.5|
0,2,3.2|
0,3,2.8|
0,4,7|
0,5,10|
0,6,5.6|
0,7,9.1|
1,0,5.5|
1,1,0.65|
1,2,1.8|
1,3,4.3|
1,4,7.1|
1,5,8.9|
1,6,3.9|
1,7,6.8|
2,0,7.6|
2,1,8.6|
2,2,0.92|
2,3,4.2|
2,4,2.6|
2,5,2.2|
2,6,0.45|
2,7,0.68|
3,0,5.8|
3,1,7.5|
3,2,4.4|
3,3,7.1|
3,4,9.1|
3,5,1.9|
3,6,6.1|
3,7,6.1|
4,0,1.1|
4,1,9.9|
4,2,6.1|
4,3,9.5|
4,4,1.7|
4,5,1.8|
4,6,6.4|
4,7,3.2|
5,0,9.5|
5,1,8.5|
5,2,1.9|
5,3,3.8|
5,4,5.2|
5,5,0.94|
5,6,1.1|
5,7,9.3|
6,0,6.6|
6,1,8.1|
6,2,7.4|
6,3,0.46|
6,4,3.6|
6,5,9.9|
6,6,0.16|
6,7,9.9|
7,0,5.3|
7,1,9.1|
7,2,7.1|
7,3,0.89|
7,4,6.9|
7,5,5.2|
7,6,0.1|
7,7,9|
];
constraint_x11_x7=[
0,0,3.5|
0,1,4|
0,2,5.3|
0,3,2.4|
0,4,7.5|
0,5,0.99|
0,6,3.4|
0,7,1.7|
1,0,8.1|
1,1,1.9|
1,2,6.6|
1,3,2|
1,4,0.3|
1,5,6.4|
1,6,3.4|
1,7,8.5|
2,0,7.2|
2,1,1.2|
2,2,7.5|
2,3,5.5|
2,4,2.9|
2,5,5.7|
2,6,6.1|
2,7,7.6|
3,0,9.9|
3,1,8.5|
3,2,4.1|
3,3,1.2|
3,4,6.8|
3,5,7.2|
3,6,4.7|
3,7,5.2|
4,0,4.7|
4,1,4.8|
4,2,1.8|
4,3,0.85|
4,4,5.3|
4,5,1.8|
4,6,5.7|
4,7,3|
5,0,6.9|
5,1,8.8|
5,2,6.4|
5,3,7|
5,4,8|
5,5,1.8|
5,6,0.64|
5,7,3.2|
6,0,4|
6,1,5.8|
6,2,7.9|
6,3,9.3|
6,4,3.1|
6,5,1.5|
6,6,6.8|
6,7,7.7|
7,0,2.5|
7,1,4.9|
7,2,3.2|
7,3,3.2|
7,4,4.2|
7,5,9.3|
7,6,8.5|
7,7,0.18|
];
constraint_x11_x10=[
0,0,6.6|
0,1,3|
0,2,7.6|
0,3,1.9|
0,4,7.9|
0,5,2.4|
0,6,8.8|
0,7,5|
1,0,6|
1,1,5.3|
1,2,2.8|
1,3,9.4|
1,4,4|
1,5,1.3|
1,6,8|
1,7,4.1|
2,0,9.2|
2,1,6.5|
2,2,5|
2,3,6.5|
2,4,5|
2,5,6.1|
2,6,4.7|
2,7,9.1|
3,0,4.8|
3,1,7.4|
3,2,7.8|
3,3,6.9|
3,4,4.5|
3,5,2.6|
3,6,3.6|
3,7,3.2|
4,0,3.5|
4,1,9.5|
4,2,5.5|
4,3,6|
4,4,6.7|
4,5,4|
4,6,3.9|
4,7,8.5|
5,0,1.3|
5,1,10|
5,2,7.1|
5,3,5.6|
5,4,5|
5,5,4.5|
5,6,4.8|
5,7,2.2|
6,0,4.5|
6,1,6.1|
6,2,9.1|
6,3,7.3|
6,4,4.2|
6,5,2.5|
6,6,6.8|
6,7,2.3|
7,0,1.4|
7,1,3.3|
7,2,5.6|
7,3,5.6|
7,4,6.9|
7,5,8.1|
7,6,2|
7,7,5.8|
];
constraint_x12_x8=[
0,0,6.3|
0,1,5.5|
0,2,7.6|
0,3,0.86|
0,4,2.2|
0,5,8.6|
0,6,9.9|
0,7,4.7|
1,0,6.8|
1,1,7.5|
1,2,3.1|
1,3,2.6|
1,4,0.97|
1,5,0.84|
1,6,6|
1,7,9.4|
2,0,6.2|
2,1,8.4|
2,2,2.4|
2,3,0.027|
2,4,7.2|
2,5,1.7|
2,6,6.5|
2,7,0.26|
3,0,3.5|
3,1,9.2|
3,2,5.6|
3,3,1.7|
3,4,1.5|
3,5,1.8|
3,6,9.4|
3,7,9.3|
4,0,9.4|
4,1,5.2|
4,2,3.2|
4,3,3.9|
4,4,9.9|
4,5,9.4|
4,6,7.9|
4,7,4.5|
5,0,1.9|
5,1,7.4|
5,2,3|
5,3,0.67|
5,4,8.4|
5,5,2.6|
5,6,4|
5,7,4|
6,0,0.88|
6,1,8.8|
6,2,4|
6,3,5.6|
6,4,6.9|
6,5,9|
6,6,1.9|
6,7,3.5|
7,0,2.4|
7,1,2.3|
7,2,6.4|
7,3,6.8|
7,4,4.4|
7,5,2.8|
7,6,3.5|
7,7,0.17|
];
constraint_x12_x11=[
0,0,3.3|
0,1,5.4|
0,2,8.3|
0,3,7.3|
0,4,1.4|
0,5,0.35|
0,6,3.1|
0,7,9.1|
1,0,0.96|
1,1,3.3|
1,2,0.2|
1,3,3|
1,4,1.6|
1,5,8.7|
1,6,5.9|
1,7,4|
2,0,9.9|
2,1,6.3|
2,2,1.5|
2,3,4|
2,4,4.1|
2,5,9.5|
2,6,1.2|
2,7,8.5|
3,0,5|
3,1,1.4|
3,2,1.8|
3,3,7.6|
3,4,9.2|
3,5,2.2|
3,6,7.7|
3,7,7.2|
4,0,9.7|
4,1,2.8|
4,2,7.5|
4,3,4|
4,4,7.1|
4,5,4.4|
4,6,1.1|
4,7,5.4|
5,0,6.7|
5,1,2.6|
5,2,1.9|
5,3,1.7|
5,4,0.65|
5,5,6.6|
5,6,4.2|
5,7,4.1|
6,0,1.5|
6,1,4.8|
6,2,4.8|
6,3,9.5|
6,4,7.7|
6,5,0.7|
6,6,2.4|
6,7,6.4|
7,0,1.7|
7,1,8.2|
7,2,5.9|
7,3,2.3|
7,4,0.17|
7,5,4.3|
7,6,4.8|
7,7,0.068|
];
constraint_x13_x9=[
0,0,8.7|
0,1,2.5|
0,2,5|
0,3,5.7|
0,4,0.47|
0,5,8|
0,6,9.6|
0,7,4.6|
1,0,5.9|
1,1,6.9|
1,2,4.3|
1,3,4.1|
1,4,5.6|
1,5,3.9|
1,6,8.1|
1,7,1.5|
2,0,9.3|
2,1,3.6|
2,2,7.5|
2,3,8.2|
2,4,2.5|
2,5,4.2|
2,6,5.7|
2,7,6.6|
3,0,5.5|
3,1,2.7|
3,2,3.4|
3,3,7.7|
3,4,0.28|
3,5,1.2|
3,6,9.5|
3,7,0.7|
4,0,2.7|
4,1,3.3|
4,2,4.3|
4,3,2.3|
4,4,2.4|
4,5,3.8|
4,6,7.8|
4,7,0.27|
5,0,0.2|
5,1,1.6|
5,2,9.6|
5,3,2.3|
5,4,3.2|
5,5,2.1|
5,6,1.3|
5,7,9.7|
6,0,2.4|
6,1,3.8|
6,2,4.6|
6,3,7.1|
6,4,9.9|
6,5,2.5|
6,6,8.3|
6,7,4.2|
7,0,4.1|
7,1,7.2|
7,2,2.2|
7,3,0.72|
7,4,2.4|
7,5,7.6|
7,6,3.9|
7,7,6.1|
];
constraint_x14_x10=[
0,0,0.45|
0,1,2.2|
0,2,1.4|
0,3,6.3|
0,4,1.1|
0,5,1.5|
0,6,4.9|
0,7,0.65|
1,0,1|
1,1,4.7|
1,2,10|
1,3,7.4|
1,4,4.7|
1,5,2.1|
1,6,6.7|
1,7,5|
2,0,3.3|
2,1,4.3|
2,2,6.8|
2,3,0.77|
2,4,2.6|
2,5,2|
2,6,8.2|
2,7,2.1|
3,0,4.5|
3,1,8.6|
3,2,2.4|
3,3,9.5|
3,4,0.057|
3,5,1.3|
3,6,0.65|
3,7,9.2|
4,0,3.4|
4,1,7.6|
4,2,2.3|
4,3,7.7|
4,4,1.6|
4,5,2.3|
4,6,4.5|
4,7,7.4|
5,0,9.4|
5,1,3.4|
5,2,8.1|
5,3,0.01|
5,4,3.2|
5,5,8.4|
5,6,5.4|
5,7,0.56|
6,0,0.36|
6,1,3.9|
6,2,0.47|
6,3,5.7|
6,4,9.5|
6,5,6.6|
6,6,2.7|
6,7,0.48|
7,0,3.6|
7,1,2.1|
7,2,4.3|
7,3,3.1|
7,4,2.7|
7,5,8.8|
7,6,8.5|
7,7,2|
];
constraint_x14_x13=[
0,0,1.5|
0,1,6.7|
0,2,0.61|
0,3,9.1|
0,4,2.6|
0,5,0.19|
0,6,8.2|
0,7,2.2|
1,0,5.1|
1,1,1.5|
1,2,2.8|
1,3,5.3|
1,4,4.5|
1,5,8.4|
1,6,5.5|
1,7,6.1|
2,0,1.8|
2,1,6.9|
2,2,9.2|
2,3,2.1|
2,4,1.5|
2,5,5.1|
2,6,9.5|
2,7,7.5|
3,0,1.3|
3,1,6.1|
3,2,9.2|
3,3,8.7|
3,4,4.3|
3,5,2|
3,6,8.8|
3,7,3|
4,0,8.2|
4,1,8.8|
4,2,6.3|
4,3,7.1|
4,4,7.4|
4,5,9.7|
4,6,4.2|
4,7,1.9|
5,0,2.9|
5,1,9.4|
5,2,7.1|
5,3,7.8|
5,4,2.8|
5,5,0.78|
5,6,0.081|
5,7,2.2|
6,0,8.5|
6,1,1.4|
6,2,8.5|
6,3,7.9|
6,4,3.4|
6,5,0.36|
6,6,8.4|
6,7,9.4|
7,0,0.61|
7,1,7.5|
7,2,4.4|
7,3,5.3|
7,4,6.3|
7,5,2.8|
7,6,4.5|
7,7,4.1|
];
constraint_x15_x11=[
0,0,8.8|
0,1,0.39|
0,2,0.94|
0,3,3.5|
0,4,8.8|
0,5,7.9|
0,6,8.4|
0,7,0.99|
1,0,9.6|
1,1,7.3|
1,2,5.3|
1,3,7|
1,4,8.8|
1,5,9.4|
1,6,4.6|
1,7,5.3|
2,0,5.9|
2,1,3.8|
2,2,2.2|
2,3,5.3|
2,4,1.8|
2,5,4.9|
2,6,5|
2,7,6|
3,0,9.9|
3,1,1.6|
3,2,2.4|
3,3,0.26|
3,4,7.5|
3,5,5.2|
3,6,6.7|
3,7,8.8|
4,0,7.1|
4,1,5.3|
4,2,2.7|
4,3,4.6|
4,4,0.1|
4,5,3.2|
4,6,5.9|
4,7,7.5|
5,0,9.4|
5,1,3.5|
5,2,9.3|
5,3,5.9|
5,4,5.2|
5,5,8.1|
5,6,6.2|
5,7,7.8|
6,0,7.7|
6,1,8.3|
6,2,5.9|
6,3,2.2|
6,4,0.29|
6,5,1.9|
6,6,9.6|
6,7,4|
7,0,6.7|
7,1,5.8|
7,2,7.4|
7,3,6.7|
7,4,4.9|
7,5,4.1|
7,6,4.7|
7,7,4.9|
];
constraint_x15_x14=[
0,0,4.5|
0,1,7.1|
0,2,2.2|
0,3,2.1|
0,4,9.3|
0,5,4.6|
0,6,2.4|
0,7,9.3|
1,0,5|
1,1,2.9|
1,2,2.4|
1,3,2.8|
1,4,3.9|
1,5,4.7|
1,6,9.1|
1,7,2.4|
2,0,3.2|
2,1,1.7|
2,2,5.6|
2,3,9.8|
2,4,1|
2,5,4.7|
2,6,8.4|
2,7,6|
3,0,3.9|
3,1,3.7|
3,2,3.3|
3,3,7.4|
3,4,4.4|
3,5,3.2|
3,6,8.7|
3,7,7|
4,0,9.6|
4,1,7.5|
4,2,0.81|
4,3,0.35|
4,4,7.6|
4,5,6.9|
4,6,9.1|
4,7,2.3|
5,0,1|
5,1,4.6|
5,2,3.3|
5,3,2.4|
5,4,2|
5,5,3.5|
5,6,2|
5,7,4.7|
6,0,1.5|
6,1,4.9|
6,2,9.7|
6,3,5.6|
6,4,3.3|
6,5,6.2|
6,6,2.4|
6,7,4.3|
7,0,7.8|
7,1,8|
7,2,9.4|
7,3,4.3|
7,4,5|
7,5,7.2|
7,6,9.9|
7,7,0.91|
];
constraint_x16_x12=[
0,0,7.7|
0,1,1.2|
0,2,0.29|
0,3,3.4|
0,4,9.1|
0,5,2|
0,6,1.9|
0,7,0.017|
1,0,4.1|
1,1,0.9|
1,2,6.8|
1,3,0.24|
1,4,2.2|
1,5,0.38|
1,6,5.6|
1,7,6.6|
2,0,9.9|
2,1,1|
2,2,8.2|
2,3,3.8|
2,4,6.7|
2,5,5.1|
2,6,3.9|
2,7,7|
3,0,6.8|
3,1,2.1|
3,2,0.5|
3,3,7.3|
3,4,7.5|
3,5,7.8|
3,6,8.9|
3,7,3.5|
4,0,7.3|
4,1,4.2|
4,2,6.5|
4,3,2.5|
4,4,8.7|
4,5,10|
4,6,1.6|
4,7,9.3|
5,0,1|
5,1,6.8|
5,2,9.9|
5,3,6.1|
5,4,8.2|
5,5,3|
5,6,1.6|
5,7,5.7|
6,0,0.69|
6,1,7.3|
6,2,7.5|
6,3,9.9|
6,4,7.9|
6,5,3.3|
6,6,2.6|
6,7,9.5|
7,0,2.6|
7,1,7.9|
7,2,3.3|
7,3,1.9|
7,4,5.1|
7,5,8.8|
7,6,8.1|
7,7,6.3|
];
constraint_x16_x15=[
0,0,3.3|
0,1,4.5|
0,2,3.4|
0,3,4|
0,4,1.7|
0,5,2.1|
0,6,3.5|
0,7,2.5|
1,0,4.5|
1,1,2.7|
1,2,9|
1,3,5.2|
1,4,4.9|
1,5,1.8|
1,6,4.6|
1,7,2.9|
2,0,9|
2,1,4.9|
2,2,1.5|
2,3,2.8|
2,4,4|
2,5,2.5|
2,6,0.56|
2,7,0.98|
3,0,3.3|
3,1,3.2|
3,2,8.5|
3,3,9|
3,4,3|
3,5,6.5|
3,6,6.1|
3,7,8|
4,0,7.4|
4,1,8.4|
4,2,9.9|
4,3,8.6|
4,4,2.8|
4,5,4.5|
4,6,0.82|
4,7,5.2|
5,0,4.1|
5,1,8.4|
5,2,0.98|
5,3,4.2|
5,4,7.4|
5,5,6|
5,6,2.4|
5,7,8.9|
6,0,7|
6,1,1.5|
6,2,8.9|
6,3,3.6|
6,4,3.8|
6,5,9.1|
6,6,8.6|
6,7,7.6|
7,0,1.8|
7,1,8.1|
7,2,10|
7,3,6.1|
7,4,7.1|
7,5,8.3|
7,6,3.5|
7,7,6.6|
];
constraint_x17_x13=[
0,0,3.9|
0,1,4.9|
0,2,5|
0,3,1.5|
0,4,1.4|
0,5,7.5|
0,6,0.2|
0,7,0.052|
1,0,5.8|
1,1,7.3|
1,2,9.7|
1,3,3.3|
1,4,2.7|
1,5,1.4|
1,6,9.7|
1,7,5.5|
2,0,0.9|
2,1,4.4|
2,2,6.9|
2,3,6.9|
2,4,3.4|
2,5,4.3|
2,6,2.8|
2,7,1.5|
3,0,0.58|
3,1,5.8|
3,2,0.11|
3,3,8.2|
3,4,5.5|
3,5,4.7|
3,6,6.3|
3,7,5.4|
4,0,9.1|
4,1,0.76|
4,2,2.7|
4,3,5.2|
4,4,6.6|
4,5,8.7|
4,6,0.29|
4,7,4.3|
5,0,2.4|
5,1,7.4|
5,2,8.1|
5,3,9.6|
5,4,4.8|
5,5,4.4|
5,6,3|
5,7,1.4|
6,0,4.2|
6,1,4.8|
6,2,1.3|
6,3,1.8|
6,4,6.8|
6,5,1.8|
6,6,0.93|
6,7,0.54|
7,0,8.6|
7,1,3.6|
7,2,3.9|
7,3,0.52|
7,4,1.1|
7,5,5.2|
7,6,8|
7,7,0.89|
];
constraint_x18_x14=[
0,0,2.4|
0,1,3.1|
0,2,9.1|
0,3,9.1|
0,4,7.1|
0,5,8.7|
0,6,6.8|
0,7,0.24|
1,0,2.7|
1,1,7.6|
1,2,5|
1,3,7.2|
1,4,6|
1,5,4.4|
1,6,6|
1,7,7.3|
2,0,5.5|
2,1,5.2|
2,2,8.5|
2,3,4.3|
2,4,2.5|
2,5,9.9|
2,6,9.7|
2,7,6.9|
3,0,3|
3,1,5.4|
3,2,2.6|
3,3,7.5|
3,4,8.9|
3,5,7.7|
3,6,9.8|
3,7,1.6|
4,0,1.1|
4,1,5.3|
4,2,7|
4,3,8.4|
4,4,5.1|
4,5,7.1|
4,6,1.1|
4,7,6.5|
5,0,4.2|
5,1,2.7|
5,2,6.4|
5,3,1.1|
5,4,3|
5,5,5.5|
5,6,5.1|
5,7,4.9|
6,0,9.2|
6,1,5.3|
6,2,5.7|
6,3,0.55|
6,4,7.4|
6,5,6.1|
6,6,8.9|
6,7,6|
7,0,5.1|
7,1,6.6|
7,2,4.6|
7,3,2.3|
7,4,7.5|
7,5,5.8|
7,6,2.8|
7,7,6.3|
];
constraint_x1_y1=[
0,0,4.7|
0,1,3.7|
0,2,7.7|
0,3,4.1|
0,4,2.1|
0,5,9.1|
0,6,2.9|
0,7,5.8|
1,0,1|
1,1,8.2|
1,2,8.2|
1,3,0.49|
1,4,8.3|
1,5,4.9|
1,6,4.8|
1,7,1.5|
2,0,7.1|
2,1,0.89|
2,2,0.067|
2,3,2|
2,4,0.56|
2,5,5.5|
2,6,0.65|
2,7,1.4|
3,0,9|
3,1,1.6|
3,2,6.1|
3,3,9.2|
3,4,0.16|
3,5,8.1|
3,6,3.7|
3,7,0.96|
4,0,2.1|
4,1,8.7|
4,2,5.3|
4,3,5|
4,4,2.9|
4,5,7.1|
4,6,0.005|
4,7,7.7|
5,0,6.7|
5,1,3.9|
5,2,4.7|
5,3,6.5|
5,4,8.4|
5,5,5.6|
5,6,7.5|
5,7,5.8|
6,0,7.8|
6,1,2.1|
6,2,1.2|
6,3,6.4|
6,4,6.9|
6,5,7.3|
6,6,5.4|
6,7,3.2|
7,0,8.3|
7,1,1.1|
7,2,7.6|
7,3,3.7|
7,4,9.7|
7,5,3.4|
7,6,8.3|
7,7,8|
];
constraint_x2_y2=[
0,0,1.2|
0,1,1.8|
0,2,4.5|
0,3,2.9|
0,4,8.1|
0,5,9.8|
0,6,8|
0,7,7.7|
1,0,6.1|
1,1,6.6|
1,2,6.4|
1,3,3.2|
1,4,7.7|
1,5,7.6|
1,6,1.2|
1,7,2.6|
2,0,6.4|
2,1,7|
2,2,0.033|
2,3,9.3|
2,4,6.8|
2,5,6.9|
2,6,4.2|
2,7,8.8|
3,0,9|
3,1,8.1|
3,2,7.6|
3,3,8.8|
3,4,8.4|
3,5,3.5|
3,6,7.5|
3,7,2.3|
4,0,5.8|
4,1,3.3|
4,2,4.1|
4,3,6.8|
4,4,4.3|
4,5,1.6|
4,6,1.2|
4,7,6.5|
5,0,1.4|
5,1,3.3|
5,2,0.86|
5,3,4.6|
5,4,7.2|
5,5,7.9|
5,6,5.6|
5,7,3.1|
6,0,6.1|
6,1,3.1|
6,2,0.91|
6,3,9.1|
6,4,9.1|
6,5,3.6|
6,6,1.3|
6,7,5.7|
7,0,0.32|
7,1,9.1|
7,2,1|
7,3,5.2|
7,4,6.5|
7,5,10|
7,6,5.9|
7,7,8.1|
];
constraint_x3_y3=[
0,0,7.2|
0,1,3|
0,2,6.2|
0,3,9.9|
0,4,7.9|
0,5,6.3|
0,6,8.8|
0,7,3.4|
1,0,5|
1,1,3.9|
1,2,7.5|
1,3,4.7|
1,4,8.8|
1,5,9.9|
1,6,3.7|
1,7,7.8|
2,0,9.1|
2,1,6|
2,2,2.8|
2,3,4.5|
2,4,5.2|
2,5,3.8|
2,6,1.2|
2,7,9.7|
3,0,0.63|
3,1,1.7|
3,2,4.9|
3,3,1.2|
3,4,1.7|
3,5,4.2|
3,6,8.7|
3,7,5.3|
4,0,0.63|
4,1,4.5|
4,2,6.4|
4,3,4.9|
4,4,5.3|
4,5,4|
4,6,0.44|
4,7,2.8|
5,0,9.7|
5,1,9.4|
5,2,9.9|
5,3,8.5|
5,4,5.7|
5,5,6.6|
5,6,5|
5,7,3.8|
6,0,1.5|
6,1,2|
6,2,3.4|
6,3,9.6|
6,4,2.2|
6,5,6.6|
6,6,1.2|
6,7,5.2|
7,0,4.9|
7,1,1.6|
7,2,0.22|
7,3,3.7|
7,4,0.41|
7,5,8.8|
7,6,4.1|
7,7,9.8|
];
constraint_x4_y4=[
0,0,4.3|
0,1,5.3|
0,2,5.3|
0,3,7.7|
0,4,9.2|
0,5,1.6|
0,6,5|
0,7,5.4|
1,0,6.2|
1,1,9|
1,2,0.44|
1,3,1.1|
1,4,1.4|
1,5,3.9|
1,6,1.2|
1,7,7.9|
2,0,8.2|
2,1,5|
2,2,6.8|
2,3,5.5|
2,4,5.4|
2,5,5|
2,6,0.37|
2,7,2.8|
3,0,8.1|
3,1,2.7|
3,2,1.4|
3,3,5.4|
3,4,7.5|
3,5,3.8|
3,6,3.6|
3,7,4.8|
4,0,7|
4,1,1.4|
4,2,8.4|
4,3,2.4|
4,4,6.3|
4,5,1.5|
4,6,3.3|
4,7,2.7|
5,0,9.1|
5,1,1.5|
5,2,9.2|
5,3,3.1|
5,4,0.18|
5,5,9.6|
5,6,7.9|
5,7,0.61|
6,0,0.73|
6,1,6.2|
6,2,7.4|
6,3,3.3|
6,4,0.94|
6,5,9|
6,6,7.8|
6,7,7.3|
7,0,7.7|
7,1,3.2|
7,2,4.8|
7,3,4.5|
7,4,0.5|
7,5,7.7|
7,6,5.5|
7,7,7.4|
];
constraint_x5_y5=[
0,0,2.1|
0,1,4.4|
0,2,5.7|
0,3,1.2|
0,4,0.19|
0,5,0.97|
0,6,9|
0,7,7.3|
1,0,7.3|
1,1,5.6|
1,2,9.5|
1,3,8.8|
1,4,8.3|
1,5,7.3|
1,6,1.8|
1,7,4.9|
2,0,2.8|
2,1,2.8|
2,2,8.6|
2,3,6.6|
2,4,2.1|
2,5,6.2|
2,6,7.3|
2,7,1|
3,0,7|
3,1,2|
3,2,7|
3,3,4.2|
3,4,7.5|
3,5,0.66|
3,6,0.67|
3,7,5.9|
4,0,9.6|
4,1,7.9|
4,2,4.6|
4,3,0.85|
4,4,3.5|
4,5,7.9|
4,6,6.2|
4,7,3.3|
5,0,3.5|
5,1,1.2|
5,2,7.8|
5,3,2.6|
5,4,5.6|
5,5,9.4|
5,6,8.6|
5,7,1.2|
6,0,0.57|
6,1,4.2|
6,2,8.3|
6,3,3.7|
6,4,7|
6,5,3|
6,6,1.4|
6,7,4.2|
7,0,7.4|
7,1,0.55|
7,2,9.3|
7,3,6.5|
7,4,7.1|
7,5,6.1|
7,6,1.9|
7,7,2.8|
];
constraint_x6_y6=[
0,0,7.8|
0,1,4.4|
0,2,4.9|
0,3,0.79|
0,4,7.6|
0,5,4.2|
0,6,1.2|
0,7,5.4|
1,0,4.7|
1,1,6|
1,2,5.4|
1,3,3.6|
1,4,1.1|
1,5,8.2|
1,6,6.6|
1,7,8.8|
2,0,9.5|
2,1,6.9|
2,2,8.3|
2,3,6.1|
2,4,2.6|
2,5,9.6|
2,6,8.4|
2,7,4.4|
3,0,0.11|
3,1,8.1|
3,2,5.2|
3,3,6.6|
3,4,3|
3,5,4.6|
3,6,1.1|
3,7,7.3|
4,0,9.1|
4,1,5.1|
4,2,2.6|
4,3,8.2|
4,4,10|
4,5,4.3|
4,6,3.8|
4,7,1.2|
5,0,9.1|
5,1,3.8|
5,2,0.17|
5,3,7.9|
5,4,7|
5,5,7.1|
5,6,4.5|
5,7,4.5|
6,0,7.3|
6,1,6.2|
6,2,3.2|
6,3,4.9|
6,4,0.47|
6,5,3.4|
6,6,9.4|
6,7,9.8|
7,0,0.47|
7,1,3|
7,2,6.1|
7,3,4.4|
7,4,0.74|
7,5,4.1|
7,6,3|
7,7,4.5|
];
constraint_x7_y7=[
0,0,8.3|
0,1,0.16|
0,2,7.2|
0,3,3.5|
0,4,0.43|
0,5,7|
0,6,7.4|
0,7,3.8|
1,0,9.9|
1,1,7.8|
1,2,3.6|
1,3,9.4|
1,4,6.4|
1,5,9.1|
1,6,5.3|
1,7,4.3|
2,0,1.4|
2,1,4.2|
2,2,7.8|
2,3,0.86|
2,4,8.9|
2,5,1.9|
2,6,7.7|
2,7,0.35|
3,0,1.4|
3,1,8.4|
3,2,7.4|
3,3,9.7|
3,4,6.2|
3,5,10|
3,6,2.8|
3,7,6.2|
4,0,4.6|
4,1,9.3|
4,2,0.47|
4,3,6.1|
4,4,8.8|
4,5,4.6|
4,6,9.1|
4,7,5.6|
5,0,3.6|
5,1,9.3|
5,2,4.2|
5,3,6.3|
5,4,1.3|
5,5,6.7|
5,6,1.5|
5,7,8.1|
6,0,0.48|
6,1,7.1|
6,2,8.6|
6,3,3.6|
6,4,6.2|
6,5,6.8|
6,6,9.2|
6,7,9.8|
7,0,6.2|
7,1,1.2|
7,2,6.1|
7,3,2.5|
7,4,7.1|
7,5,3.2|
7,6,9.7|
7,7,8.2|
];
constraint_x8_y8=[
0,0,9.9|
0,1,8.4|
0,2,5.5|
0,3,6.4|
0,4,7.8|
0,5,3.4|
0,6,8.3|
0,7,5.2|
1,0,6.7|
1,1,10|
1,2,9.2|
1,3,9.8|
1,4,3.6|
1,5,8|
1,6,6.4|
1,7,3.4|
2,0,1.9|
2,1,7|
2,2,7.7|
2,3,9.9|
2,4,6.9|
2,5,0.36|
2,6,5.8|
2,7,8.8|
3,0,8.8|
3,1,9.2|
3,2,3.6|
3,3,4.6|
3,4,1.3|
3,5,1.3|
3,6,8|
3,7,5.9|
4,0,0.45|
4,1,5.8|
4,2,4.9|
4,3,0.77|
4,4,4.3|
4,5,4.4|
4,6,2.3|
4,7,0.042|
5,0,7|
5,1,0.46|
5,2,4.1|
5,3,9.1|
5,4,4.4|
5,5,0.46|
5,6,4.8|
5,7,2.5|
6,0,9.5|
6,1,7.3|
6,2,5.1|
6,3,6|
6,4,7.1|
6,5,2.2|
6,6,2.4|
6,7,2.1|
7,0,8.1|
7,1,4|
7,2,6.5|
7,3,2.4|
7,4,2|
7,5,6.6|
7,6,3.6|
7,7,9.5|
];
initial_distribution_y1=[0.018,0.22,0.069,0.091,0.21,0.087,0.21,0.096];
initial_distribution_y2=[0.21,0.12,0.18,0.085,0.067,0.17,0.093,0.075];
initial_distribution_y3=[0.11,0.15,0.11,0.15,0.095,0.088,0.15,0.16];
initial_distribution_y4=[0.22,0.18,0.085,0.11,0.11,0.055,0.1,0.15];
initial_distribution_y5=[0.064,0.032,0.17,0.06,0.24,0.23,0.12,0.085];
initial_distribution_y6=[0.2,0.021,0.061,0.028,0.23,0.0099,0.24,0.21];
initial_distribution_y7=[0.26,0.31,0.039,0.16,0.1,0.078,0.014,0.041];
initial_distribution_y8=[0.1,0.18,0.081,0.063,0.16,0.13,0.083,0.2];
transition_y1=[
0.19,0.18,0.11,0.085,0.19,0.039,0.047,0.16|
0.039,0.067,0.23,0.096,0.027,0.055,0.26,0.22|
0.22,0.022,0.022,0.09,0.34,0.0068,0.11,0.19|
0.2,0.16,0.24,0.02,0.024,0.047,0.17,0.15|
0.032,0.023,0.052,0.26,0.18,0.26,0.099,0.094|
0.19,0.18,0.072,0.17,0.037,0.0088,0.032,0.31|
0.018,0.21,0.15,0.036,0.21,0.19,0.0081,0.17|
0.1,0.17,0.05,0.23,0.16,0.02,0.15,0.11|
];
transition_y2=[
0.14,0.12,0.12,0.071,0.11,0.15,0.21,0.079|
0.14,0.19,0.09,0.12,0.054,0.087,0.18,0.13|
0.099,0.22,0.19,0.027,0.11,0.045,0.095,0.22|
0.12,0.019,0.08,0.065,0.17,0.049,0.47,0.031|
0.12,0.099,0.16,0.1,0.072,0.12,0.16,0.16|
0.17,0.19,0.18,0.15,0.11,0.036,0.0035,0.15|
0.074,0.14,0.12,0.035,0.13,0.16,0.21,0.14|
0.033,0.24,0.16,0.0086,0.092,0.09,0.21,0.17|
];
transition_y3=[
0.15,0.072,0.13,0.065,0.065,0.11,0.21,0.2|
0.2,0.13,0.0057,0.13,0.089,0.24,0.047,0.17|
0.16,0.2,0.0043,0.18,0.032,0.16,0.13,0.11|
0.19,0.12,0.085,0.052,0.068,0.17,0.1,0.21|
0.14,0.15,0.15,0.11,0.098,0.041,0.15,0.16|
0.12,0.057,0.21,0.054,0.15,0.17,0.009,0.23|
0.16,0.049,0.15,0.085,0.011,0.21,0.1,0.23|
0.24,0.2,0.067,0.019,0.022,0.21,0.043,0.2|
];
transition_y4=[
0.04,0.07,0.2,0.29,0.27,0.016,0.075,0.037|
0.16,0.13,0.14,0.058,0.19,0.22,0.02,0.088|
0.11,0.16,0.13,0.1,0.07,0.16,0.12,0.15|
0.22,0.19,0.055,0.1,0.19,0.072,0.083,0.094|
0.19,0.16,0.07,0.17,0.12,0.095,0.11,0.088|
0.033,0.16,0.2,0.18,0.072,0.066,0.19,0.11|
0.017,0.12,0.068,0.081,0.21,0.2,0.065,0.23|
0.21,0.0064,0.03,0.13,0.27,0.0066,0.072,0.27|
];
transition_y5=[
0.16,0.025,0.056,0.26,0.026,0.2,0.039,0.23|
0.1,0.018,0.11,0.14,0.18,0.17,0.15,0.12|
0.16,0.13,0.21,0.068,0.047,0.17,0.045,0.17|
0.13,0.097,0.075,0.24,0.071,0.14,0.18,0.08|
0.039,0.16,0.13,0.16,0.12,0.11,0.088,0.2|
0.015,0.013,0.082,0.18,0.21,0.26,0.043,0.19|
0.15,0.088,0.15,0.13,0.073,0.087,0.11,0.21|
0.23,0.086,0.053,0.03,0.047,0.14,0.23,0.19|
];
transition_y6=[
0.2,0.017,0.2,0.027,0.0079,0.19,0.18,0.18|
0.18,0.22,0.2,0.046,0.11,0.074,0.02,0.15|
0.0086,0.059,0.24,0.13,0.25,0.18,0.12,0.012|
0.19,0.18,0.21,0.16,0.074,0.084,0.1,0.012|
0.067,0.22,0.022,0.14,0.13,0.21,0.1,0.1|
0.13,0.29,0.015,0.011,0.13,0.31,0.079,0.037|
0.16,0.18,0.14,0.2,0.064,0.13,0.0061,0.11|
0.26,0.1,0.12,0.11,0.041,0.068,0.19,0.098|
];
transition_y7=[
0.18,0.11,0.024,0.15,0.041,0.32,0.087,0.09|
0.18,0.14,0.18,0.14,0.13,0.031,0.033,0.17|
0.15,0.019,0.16,0.084,0.11,0.11,0.14,0.23|
0.13,0.17,0.068,0.036,0.28,0.065,0.027,0.23|
0.22,0.25,0.15,0.17,0.12,0.028,0.03,0.022|
0.064,0.014,0.13,0.089,0.2,0.25,0.031,0.22|
0.035,0.14,0.16,0.13,0.15,0.085,0.17,0.13|
0.38,0.075,0.029,0.031,0.091,0.15,0.07,0.17|
];
transition_y8=[
0.12,0.19,0.12,0.041,0.17,0.12,0.14,0.11|
0.13,0.14,0.18,0.18,0.1,0.0097,0.17,0.096|
0.15,0.16,0.12,0.11,0.16,0.13,0.016,0.16|
0.097,0.0096,0.16,0.12,0.18,0.17,0.15,0.11|
0.14,0.091,0.14,0.074,0.005,0.19,0.18,0.18|
0.17,0.2,0.081,0.067,0.12,0.23,0.072,0.059|
0.13,0.2,0.084,0.11,0.22,0.18,0.052,0.03|
0.12,0.22,0.069,0.12,0.21,0.03,0.11,0.12|
];
